Water Network: 9
Results smooth approximation 2 of Hazen--Williams headloss constraint using relative error

*******************************************************************************
wdnmodel.mod

-------------------------------- Solving with gurobi --------------------------
Gurobi 12.0.3: Set parameter LogToConsole to value 1
  tech:outlev = 1
  tech:outlev_mp = 1
Set parameter Presolve to value 1
  pre:solve = 1
Set parameter Aggregate to value 1
  pre:aggregate = 1
Set parameter TimeLimit to value 600
  lim:time = 600
Set parameter NumericFocus to value 1
  alg:numericfocus = 1
Set parameter OBBT to value 0
  mip:obbt = 0
Set parameter ScaleFlag to value 1
  pre:scale = 1
Set parameter Method to value 2
  alg:method = 2
Set parameter NodeMethod to value 1
  mip:nodemethod = 1
Set parameter NonConvex to value 2
  qp:nonconvex = 2
Set parameter MIPFocus to value 1
  mip:focus = 1
Set parameter NLPHeur to value 1
  alg:nlpheur = 1
Set parameter VarBranch to value 0
  mip:varbranch = 0
Set parameter MIPGapAbs to value 1e-05
  mip:gapabs = 1.0000000000000001e-05
Set parameter MIPGap to value 1e-06
  mip:gap = 9.9999999999999995e-07
Set parameter FeasibilityTol to value 1e-05
  alg:feastol = 1.0000000000000001e-05
  cvt:pre:feastol = 1.0000000000000001e-05
  cvt:pre:feastolrel = 9.9999999999999995e-07
  sol:chk:feastol = 1.0000000000000001e-05
  sol:chk:feastolrel = 9.9999999999999995e-07

AMPL MP initial flat model has 500 variables (0 integer, 0 binary);
Objectives: 1 linear; 
Constraints:  94 linear; 232 quadratic;
Algebraic expressions:  58 div; 116 powconstexp;

AMPL MP final model has 906 variables (0 integer, 0 binary);
Objectives: 1 linear; 
Constraints:  152 linear; 232 quadratic;
Algebraic expressions:  58 div; 116 powconstexp;


Set parameter InfUnbdInfo to value 1
Gurobi Optimizer version 12.0.3 build v12.0.3rc0 (linux64 - "Debian GNU/Linux 12 (bookworm)")

CPU model: INTEL(R) XEON(R) GOLD 6530, instruction set [SSE2|AVX|AVX2|AVX512]
Thread count: 32 physical cores, 64 logical processors, using up to 32 threads

Non-default parameters:
TimeLimit  600
FeasibilityTol  1e-05
MIPGap  1e-06
MIPGapAbs  1e-05
Method  2
ScaleFlag  1
MIPFocus  1
NodeMethod  1
OBBT  0
VarBranch  0
InfUnbdInfo  1
NonConvex  2
NumericFocus  1
Presolve  1

Optimize a model with 152 rows, 906 columns and 694 nonzeros
Model fingerprint: 0x441ad85b
Model has 58 general nonlinear constraints (2842 nonlinear terms)
Variable types: 906 continuous, 0 integer (0 binary)
Coefficient statistics:
  Matrix range     [1e+00, 1e+00]
  Objective range  [7e+03, 1e+05]
  Bounds range     [4e-11, 5e+10]
  RHS range        [3e-04, 4e+02]
Warning: Model contains large bounds
Presolve model has 58 nlconstr
Added 1972 variables to disaggregate expressions.
Presolve removed 1 rows and 349 columns
Presolve time: 0.02s
Presolved: 8240 rows, 2530 columns, 20279 nonzeros
Presolved model has 928 bilinear constraint(s)
Presolved model has 522 nonlinear constraint(s)

Solving non-convex MINLP

Variable types: 2530 continuous, 0 integer (0 binary)
Root barrier log...

Ordering time: 0.00s

Barrier statistics:
 AA' NZ     : 2.260e+02
 Factor NZ  : 1.020e+03
 Factor Ops : 1.250e+04 (less than 1 second per iteration)
 Threads    : 1

                  Objective                Residual
Iter       Primal          Dual         Primal    Dual     Compl     Time
   0   1.73760688e+17 -2.76512609e+16  6.82e+10 0.00e+00  2.86e+14     3s
   1   1.17485195e+16 -6.56834168e+16  4.99e+09 8.73e-11  7.82e+13     3s
   2   5.69794965e+12 -8.30800453e+14  2.16e+06 2.91e-11  7.90e+11     3s
   3   7.08134824e+09 -1.09689380e+12  2.60e+03 4.37e-11  1.04e+09     3s
   4   2.18027707e+08 -1.20877186e+09  2.55e+00 4.37e-11  1.34e+06     3s
   5   8.97797717e+07 -1.40671936e+08  1.72e-01 5.12e-07  2.16e+05     3s
   6   5.91551257e+07  5.49352109e+07  1.40e-03 1.08e-07  3.98e+03     3s
   7   5.79314246e+07  5.78929264e+07  7.63e-06 1.96e-08  3.69e+01     3s
   8   5.79164176e+07  5.79163362e+07  3.81e-06 2.91e-11  7.76e-02     3s
   9   5.79163754e+07  5.79163754e+07  1.91e-06 4.67e-11  1.51e-07     3s
  10   5.79163754e+07  5.79163754e+07  1.91e-06 2.91e-11  1.51e-10     3s

Barrier solved model in 10 iterations and 2.95 seconds (0.10 work units)
Optimal objective 5.79163754e+07

Extra simplex iterations after uncrush: 407

Root relaxation: objective 5.791638e+07, 525 iterations, 0.11 seconds (0.01 work units)

    Nodes    |    Current Node    |     Objective Bounds      |     Work
 Expl Unexpl |  Obj  Depth IntInf | Incumbent    BestBd   Gap | It/Node Time

     0     0 5.7916e+07    0  550          - 5.7916e+07      -     -    3s
     0     0 5.7916e+07    0  572          - 5.7916e+07      -     -    3s
     0     0 5.7916e+07    0  570          - 5.7916e+07      -     -    3s
     0     0 5.7916e+07    0  576          - 5.7916e+07      -     -    3s
     0     0 5.7916e+07    0  577          - 5.7916e+07      -     -    3s
     0     0 5.7916e+07    0  550          - 5.7916e+07      -     -    3s
     0     2 5.7916e+07    0  550          - 5.7916e+07      -     -   16s
  9033  1138 5.7916e+07  101  526          - 5.7916e+07      -   0.3   20s
 35837  1956 5.7916e+07  124    0          - 5.7916e+07      -   0.1   25s
 35844  1960 5.7916e+07  318    0          - 5.7916e+07      -   0.1   44s
 35845  1964 5.7916e+07   10  476          - 5.7916e+07      -   0.1   49s
 35847  1965 infeasible   11               - 5.7916e+07      -   0.1   51s
 36167  2119 5.7916e+07   21  491          - 5.7916e+07      -   0.1   57s
 37755  1821 infeasible   45               - 5.7916e+07      -   0.2   60s
 41387   615 infeasible  102               - 5.7916e+07      -   0.1   65s
 44267   502 infeasible  147               - 5.7916e+07      -   0.1   70s
 46957   502 infeasible  189               - 5.7916e+07      -   0.1   75s
 50285   502 infeasible  241               - 5.7916e+07      -   0.1   80s
 53741   502 infeasible  295               - 5.7916e+07      -   0.1   94s
 54221   502 infeasible  305               - 5.7916e+07      -   0.1   96s
 56781   502 infeasible  345               - 5.7916e+07      -   0.1  100s
 59661   502 infeasible  390               - 5.7916e+07      -   0.1  105s
 62861   502 infeasible  440               - 5.7916e+07      -   0.1  110s
 66445   502 infeasible  496               - 5.7916e+07      -   0.1  116s
 69069   502 infeasible  537               - 5.7916e+07      -   0.1  121s
 71949   502 infeasible  582               - 5.7916e+07      -   0.1  130s
 74469   519 infeasible  623               - 5.7916e+07      -   0.1  136s
 77857   562 infeasible  677               - 5.7916e+07      -   0.1  142s
 79649   562 infeasible  705               - 5.7916e+07      -   0.1  145s
 83297   562 infeasible  762               - 5.7916e+07      -   0.1  151s
 85281   562 infeasible  793               - 5.7916e+07      -   0.1  158s
 86999   568 infeasible  821               - 5.7916e+07      -   0.1  162s
 89169   568 infeasible  855               - 5.7916e+07      -   0.1  165s
 93713   568 infeasible  926               - 5.7916e+07      -   0.1  175s
 97707   570 infeasible  988               - 5.7916e+07      -   0.1  183s
 100341   584 infeasible 1028               - 5.7916e+07      -   0.1  187s
 103139   584 infeasible 1072               - 5.7916e+07      -   0.1  192s
 106019   647 infeasible 1117               - 5.7916e+07      -   0.1  196s
 108900   794 infeasible 1163               - 5.7916e+07      -   0.1  200s
 111889   893 infeasible 1212               - 5.7916e+07      -   0.1  206s
 113826  1179 infeasible 1245               - 5.7916e+07      -   0.1  212s
 117508  1373 infeasible 1297               - 5.7916e+07      -   0.1  219s
 121154  1555 infeasible 1357               - 5.7916e+07      -   0.0  225s
 124684  1726 infeasible 1415               - 5.7916e+07      -   0.0  231s
 128161  1894 infeasible 1472               - 5.7916e+07      -   0.0  237s
 131577  2046 infeasible 1528               - 5.7916e+07      -   0.0  243s
 134809  2164 infeasible 1578               - 5.7916e+07      -   0.0  250s
 136925  2342 infeasible 1613               - 5.7916e+07      -   0.0  257s
 140529  2498 infeasible 1672               - 5.7916e+07      -   0.0  264s
 143823  2660 infeasible 1725               - 5.7916e+07      -   0.0  271s
 147117  2822 infeasible 1779               - 5.7916e+07      -   0.0  277s
 150411  3134 infeasible 1833               - 5.7916e+07      -   0.0  284s
 153547  3406 infeasible 1887               - 5.7916e+07      -   0.0  290s
 156731  3548 infeasible 1941               - 5.7916e+07      -   0.0  297s
 158809  3794 infeasible 1977               - 5.7916e+07      -   0.0  304s
 162339  4033 infeasible 2035               - 5.7916e+07      -   0.0  310s
 165806  4302 infeasible 2093               - 5.7916e+07      -   0.0  316s
 169185  4745 infeasible 2150               - 5.7916e+07      -   0.0  322s
 172326  5228 5.7916e+07 2184  495          - 5.7916e+07      -   0.0  329s
 175363  5759 5.7916e+07 2204  495          - 5.7916e+07      -   0.0  336s
 178554  6116 5.7916e+07 2241  495          - 5.7916e+07      -   0.0  345s
 180665  6732 5.7916e+07 2261  495          - 5.7916e+07      -   0.0  353s
 184273  7324 5.7916e+07 2294  495          - 5.7916e+07      -   0.0  360s
 187777  8047 5.7916e+07 2326  495          - 5.7916e+07      -   0.0  367s
 191086  8608 5.7916e+07 2350  495          - 5.7916e+07      -   0.0  375s
 194523  9167 5.7916e+07 2389  495          - 5.7916e+07      -   0.0  382s
 197926  9738 5.7916e+07 2420  495          - 5.7916e+07      -   0.0  390s
 201259 10069 5.7916e+07 2443  495          - 5.7916e+07      -   0.0  398s
 203208 10915 5.7916e+07 2469  495          - 5.7916e+07      -   0.0  410s
 208336 11481 5.7916e+07 2516  495          - 5.7916e+07      -   0.0  418s
 211914 12066 5.7916e+07 2539  495          - 5.7916e+07      -   0.0  426s
 215489 12653 5.7916e+07 2579  495          - 5.7916e+07      -   0.0  434s
 218974 13345 5.7916e+07 2611  495          - 5.7916e+07      -   0.0  442s
 222250 13962 5.7916e+07 2642  495          - 5.7916e+07      -   0.0  451s
 224167 15154 5.7916e+07 2654  495          - 5.7916e+07      -   0.0  459s
 227327 16387 5.7916e+07 2688  495          - 5.7916e+07      -   0.0  467s
 230446 17546 5.7916e+07 2722  495          - 5.7916e+07      -   0.0  474s
 232999 19022 5.7916e+07 2751  495          - 5.7916e+07      -   0.0  483s
 236251 20420 5.7916e+07 2788  495          - 5.7916e+07      -   0.0  492s
 239385 21900 5.7916e+07 2822  495          - 5.7916e+07      -   0.0  501s
 242641 22866 5.7916e+07 2859  495          - 5.7916e+07      -   0.0  511s
 244673 24466 5.7916e+07 2883  495          - 5.7916e+07      -   0.0  521s
 248193 25961 5.7916e+07 2923  495          - 5.7916e+07      -   0.0  531s
 251548 27520 5.7916e+07 2959  495          - 5.7916e+07      -   0.0  540s
 254979 29059 5.7916e+07 2998  495          - 5.7916e+07      -   0.0  550s
 258366 30597 5.7916e+07 3045  495          - 5.7916e+07      -   0.0  558s
 261692 31816 5.7916e+07 3083  495          - 5.7916e+07      -   0.0  566s
 264375 32878 5.7916e+07 3105  495          - 5.7916e+07      -   0.0  575s
 266511 35079 5.7916e+07 3130  495          - 5.7916e+07      -   0.0  585s
 269942 37487 5.7916e+07 3174  495          - 5.7916e+07      -   0.0  595s
 273038 38857 5.7916e+07 3217  495          - 5.7916e+07      -   0.0  600s

Cutting planes:
  RLT: 65

Explored 274784 nodes (7191 simplex iterations) in 600.11 seconds (86.80 work units)
Thread count was 32 (of 64 available processors)

Solution count 0

Time limit reached
Best objective -, best bound 5.791637540000e+07, gap -
Gurobi 12.0.3: time limit, without a feasible solution
7191 simplex iterations
20 barrier iterations
274784 branching nodes
eps [*,*]
:         1             2             3             4             5         :=
2     .             .            1.82263e-05    .             .
3     .             .             .            1.08534e-05    .
4     .             .             .             .            1.13237e-05
12    .             .             .            2.83092e-05    .
17    .            9.84399e-06    .             .             .
36   1.34315e-05    .             .             .             .
37   0.000241517    .             .             .             .

:         6             7             8             9            10         :=
5    1.04351e-05    .             .             .             .
6     .            1.7028e-05     .             .             .
18    .             .             .             .            2.20774e-05
21   1.34539e-05    .             .             .             .
22    .            1.03581e-05    .             .             .
24    .             .            1.72543e-05    .             .
25    .             .            1.62861e-05    .             .
28    .             .             .            1.48165e-05    .
30    .             .             .            1.78792e-05    .
31    .             .             .             .            1.45632e-05

:        11            12            13            14            15         :=
3    1.39173e-05    .             .             .             .
5     .             .            2.30706e-05    .             .
10   1.63178e-05    .             .             .             .
12    .             .            1.36755e-05    .             .
13    .             .             .            1.88624e-05    .
19    .            2.01277e-05    .             .             .
20    .             .             .             .            1.91894e-05
26    .             .             .             .            1.8734e-05

:        16            17            18            19            20         :=
1     .            1.72382e-05    .             .             .
2     .             .            1.54316e-05    .             .
11    .             .             .            1.54459e-05    .
14    .             .             .             .            3.41959e-05
15   1.45029e-05    .             .             .             .
17    .             .            1.26757e-05    .             .
19    .             .             .             .            1.22998e-05
27   2.01682e-05    .             .             .             .

:        21            22            23            24            25         :=
7     .             .             .            1.37695e-05    .
14   2.53099e-05    .             .             .             .
15    .            2.25366e-05    .             .             .
16    .             .             .             .            2.23183e-05
21    .            1.62813e-05    .             .             .
22    .             .            1.9688e-05     .             .
23    .             .             .             .            2.34512e-05
24    .             .            1.34243e-05    .             .

:        26            27            28            29            30         :=
8     .             .            1.64573e-05    .             .
11   2.21717e-05    .             .             .             .
16    .             .             .            1.70138e-05    .
26    .            1.46125e-05    .             .             .
28    .             .             .            1.61938e-05    .
29    .             .             .             .            2.72906e-05
32    .            2.28938e-05    .             .             .

:        31            32            33            34            35         :=
1    2.33957e-05    .             .             .             .
10    .            2.92651e-05    .             .             .
29    .             .            1.32855e-05    .             .
30    .             .             .             .            1.82074e-05
31    .             .             .            2.64862e-05    .
32    .             .            1.64709e-05    .             .
33    .             .             .            3.55549e-05    .
34    .             .             .             .            1.52952e-05

:        36         :=
9    1.88805e-05
35   2.21904e-05
;

*******************************************************************************

Constraints violation:


Sum of constraints violation: 12281.053909999997
*******************************************************************************

*******************************************************************************

Absolute and relative violations between original and approximation constraint 2:

+-----------------+--------------+--------------------------+------------------------+----------------------+----------------------+
| Constraint ID   |   flow value |   Original Con Violation |   Approx Con Violation |   Absolute Violation |   Relative Violation |
+=================+==============+==========================+========================+======================+======================+
| 1,17            |            0 |                        0 |                      0 |                    0 |                    0 |
+-----------------+--------------+--------------------------+------------------------+----------------------+----------------------+
| 1,31            |            0 |                        0 |                      0 |                    0 |                    0 |
+-----------------+--------------+--------------------------+------------------------+----------------------+----------------------+
| 2,3             |            0 |                        0 |                      0 |                    0 |                    0 |
+-----------------+--------------+--------------------------+------------------------+----------------------+----------------------+
| 2,18            |            0 |                        0 |                      0 |                    0 |                    0 |
+-----------------+--------------+--------------------------+------------------------+----------------------+----------------------+
| 3,4             |            0 |                        0 |                      0 |                    0 |                    0 |
+-----------------+--------------+--------------------------+------------------------+----------------------+----------------------+
| 3,11            |            0 |                        0 |                      0 |                    0 |                    0 |
+-----------------+--------------+--------------------------+------------------------+----------------------+----------------------+
| 4,5             |            0 |                        0 |                      0 |                    0 |                    0 |
+-----------------+--------------+--------------------------+------------------------+----------------------+----------------------+
| 5,6             |            0 |                        0 |                      0 |                    0 |                    0 |
+-----------------+--------------+--------------------------+------------------------+----------------------+----------------------+
| 5,13            |            0 |                        0 |                      0 |                    0 |                    0 |
+-----------------+--------------+--------------------------+------------------------+----------------------+----------------------+
| 6,7             |            0 |                        0 |                      0 |                    0 |                    0 |
+-----------------+--------------+--------------------------+------------------------+----------------------+----------------------+
| 7,24            |            0 |                        0 |                      0 |                    0 |                    0 |
+-----------------+--------------+--------------------------+------------------------+----------------------+----------------------+
| 8,28            |            0 |                        0 |                      0 |                    0 |                    0 |
+-----------------+--------------+--------------------------+------------------------+----------------------+----------------------+
| 9,36            |            0 |                        0 |                      0 |                    0 |                    0 |
+-----------------+--------------+--------------------------+------------------------+----------------------+----------------------+
| 10,11           |            0 |                        0 |                      0 |                    0 |                    0 |
+-----------------+--------------+--------------------------+------------------------+----------------------+----------------------+
| 10,32           |            0 |                        0 |                      0 |                    0 |                    0 |
+-----------------+--------------+--------------------------+------------------------+----------------------+----------------------+
| 11,19           |            0 |                        0 |                      0 |                    0 |                    0 |
+-----------------+--------------+--------------------------+------------------------+----------------------+----------------------+
| 11,26           |            0 |                        0 |                      0 |                    0 |                    0 |
+-----------------+--------------+--------------------------+------------------------+----------------------+----------------------+
| 12,4            |            0 |                        0 |                      0 |                    0 |                    0 |
+-----------------+--------------+--------------------------+------------------------+----------------------+----------------------+
| 12,13           |            0 |                        0 |                      0 |                    0 |                    0 |
+-----------------+--------------+--------------------------+------------------------+----------------------+----------------------+
| 13,14           |            0 |                        0 |                      0 |                    0 |                    0 |
+-----------------+--------------+--------------------------+------------------------+----------------------+----------------------+
| 14,20           |            0 |                        0 |                      0 |                    0 |                    0 |
+-----------------+--------------+--------------------------+------------------------+----------------------+----------------------+
| 14,21           |            0 |                        0 |                      0 |                    0 |                    0 |
+-----------------+--------------+--------------------------+------------------------+----------------------+----------------------+
| 15,16           |            0 |                        0 |                      0 |                    0 |                    0 |
+-----------------+--------------+--------------------------+------------------------+----------------------+----------------------+
| 15,22           |            0 |                        0 |                      0 |                    0 |                    0 |
+-----------------+--------------+--------------------------+------------------------+----------------------+----------------------+
| 16,25           |            0 |                        0 |                      0 |                    0 |                    0 |
+-----------------+--------------+--------------------------+------------------------+----------------------+----------------------+
| 16,29           |            0 |                        0 |                      0 |                    0 |                    0 |
+-----------------+--------------+--------------------------+------------------------+----------------------+----------------------+
| 17,2            |            0 |                        0 |                      0 |                    0 |                    0 |
+-----------------+--------------+--------------------------+------------------------+----------------------+----------------------+
| 17,18           |            0 |                        0 |                      0 |                    0 |                    0 |
+-----------------+--------------+--------------------------+------------------------+----------------------+----------------------+
| 18,10           |            0 |                        0 |                      0 |                    0 |                    0 |
+-----------------+--------------+--------------------------+------------------------+----------------------+----------------------+
| 19,12           |            0 |                        0 |                      0 |                    0 |                    0 |
+-----------------+--------------+--------------------------+------------------------+----------------------+----------------------+
| 19,20           |            0 |                        0 |                      0 |                    0 |                    0 |
+-----------------+--------------+--------------------------+------------------------+----------------------+----------------------+
| 20,15           |            0 |                        0 |                      0 |                    0 |                    0 |
+-----------------+--------------+--------------------------+------------------------+----------------------+----------------------+
| 21,6            |            0 |                        0 |                      0 |                    0 |                    0 |
+-----------------+--------------+--------------------------+------------------------+----------------------+----------------------+
| 21,22           |            0 |                        0 |                      0 |                    0 |                    0 |
+-----------------+--------------+--------------------------+------------------------+----------------------+----------------------+
| 22,7            |            0 |                        0 |                      0 |                    0 |                    0 |
+-----------------+--------------+--------------------------+------------------------+----------------------+----------------------+
| 22,23           |            0 |                        0 |                      0 |                    0 |                    0 |
+-----------------+--------------+--------------------------+------------------------+----------------------+----------------------+
| 23,25           |            0 |                        0 |                      0 |                    0 |                    0 |
+-----------------+--------------+--------------------------+------------------------+----------------------+----------------------+
| 24,8            |            0 |                        0 |                      0 |                    0 |                    0 |
+-----------------+--------------+--------------------------+------------------------+----------------------+----------------------+
| 24,23           |            0 |                        0 |                      0 |                    0 |                    0 |
+-----------------+--------------+--------------------------+------------------------+----------------------+----------------------+
| 25,8            |            0 |                        0 |                      0 |                    0 |                    0 |
+-----------------+--------------+--------------------------+------------------------+----------------------+----------------------+
| 26,15           |            0 |                        0 |                      0 |                    0 |                    0 |
+-----------------+--------------+--------------------------+------------------------+----------------------+----------------------+
| 26,27           |            0 |                        0 |                      0 |                    0 |                    0 |
+-----------------+--------------+--------------------------+------------------------+----------------------+----------------------+
| 27,16           |            0 |                        0 |                      0 |                    0 |                    0 |
+-----------------+--------------+--------------------------+------------------------+----------------------+----------------------+
| 28,9            |            0 |                        0 |                      0 |                    0 |                    0 |
+-----------------+--------------+--------------------------+------------------------+----------------------+----------------------+
| 28,29           |            0 |                        0 |                      0 |                    0 |                    0 |
+-----------------+--------------+--------------------------+------------------------+----------------------+----------------------+
| 29,30           |            0 |                        0 |                      0 |                    0 |                    0 |
+-----------------+--------------+--------------------------+------------------------+----------------------+----------------------+
| 29,33           |            0 |                        0 |                      0 |                    0 |                    0 |
+-----------------+--------------+--------------------------+------------------------+----------------------+----------------------+
| 30,9            |            0 |                        0 |                      0 |                    0 |                    0 |
+-----------------+--------------+--------------------------+------------------------+----------------------+----------------------+
| 30,35           |            0 |                        0 |                      0 |                    0 |                    0 |
+-----------------+--------------+--------------------------+------------------------+----------------------+----------------------+
| 31,10           |            0 |                        0 |                      0 |                    0 |                    0 |
+-----------------+--------------+--------------------------+------------------------+----------------------+----------------------+
| 31,34           |            0 |                        0 |                      0 |                    0 |                    0 |
+-----------------+--------------+--------------------------+------------------------+----------------------+----------------------+
| 32,27           |            0 |                        0 |                      0 |                    0 |                    0 |
+-----------------+--------------+--------------------------+------------------------+----------------------+----------------------+
| 32,33           |            0 |                        0 |                      0 |                    0 |                    0 |
+-----------------+--------------+--------------------------+------------------------+----------------------+----------------------+
| 33,34           |            0 |                        0 |                      0 |                    0 |                    0 |
+-----------------+--------------+--------------------------+------------------------+----------------------+----------------------+
| 34,35           |            0 |                        0 |                      0 |                    0 |                    0 |
+-----------------+--------------+--------------------------+------------------------+----------------------+----------------------+
| 35,36           |            0 |                        0 |                      0 |                    0 |                    0 |
+-----------------+--------------+--------------------------+------------------------+----------------------+----------------------+
| 36,1            |            0 |                        0 |                      0 |                    0 |                    0 |
+-----------------+--------------+--------------------------+------------------------+----------------------+----------------------+
| 37,1            |            0 |                      121 |                    121 |                    0 |                    0 |
+-----------------+--------------+--------------------------+------------------------+----------------------+----------------------+

Sum of violation of original headloss constraint: 121.0
Sum of violation of approx headloss constraint: 121.0

Con2 sum of absolute violation between original function and approximate function: 0.0
Con2 sum of relative violation between original function and approximate function: 0.0
*******************************************************************************

Total cost using gurobi: 0.0
gurobi solve time: 600.36 seconds
*******************************************************************************

